0 0 0 0
0 1 1 0
0 2 1 0
0 3 0 0
0 4 0 4
0 5 1 4
0 6 0 7
0 7 0 5
0 8 0 8
0 9 0 8
0 10 1 7
0 11 1 8
0 12 0 13
0 13 0 15
0 14 2 9
0 15 0 4
0 16 0 13
0 17 0 11
0 18 0 16
0 19 1 15
0 20 1 15
0 21 1 15
0 22 1 15
0 23 1 22
0 24 0 21
0 25 0 27
0 26 2 16
0 27 0 24
0 28 0 29
0 29 0 28
0 30 0 23
0 31 0 30
